1 2147
2 1848
4 1847
10 1843
11 1835
18 1787
28 1776
31 1775
32 1738
134 1731
224 1719
282 1717
727 1693
981 1670



1 2181
2 1954
3 1877
6 1852
8 1819
9 1784
10 1743
58 1717
439 1669



1 2124
2 1965
3 1883
6 1864
9 1789
33 1730
34 1724
104 1720
437 1717
520 1703
915 1644



1 2149
2 1935
3 1914
4 1826
10 1785
15 1758
99 1754
129 1733
295 1719
303 1699
736 1684



1 2111
2 1943
3 1861
5 1831
14 1822
23 1792
28 1737
61 1641



